(set-logic QF_LRA)
(declare-fun X0 () Real )
(declare-fun Y0 () Real )
(declare-fun X1 () Real )
(declare-fun Y1 () Real )
(declare-fun X2 () Real )
(declare-fun Y2 () Real )
(declare-fun X3 () Real )
(declare-fun Y3 () Real )
(declare-fun X4 () Real )
(declare-fun Y4 () Real )
(declare-fun X5 () Real )
(declare-fun Y5 () Real )
(declare-fun X6 () Real )
(declare-fun Y6 () Real )
(declare-fun X7 () Real )
(declare-fun Y7 () Real )
(declare-fun X8 () Real )
(declare-fun Y8 () Real )
(declare-fun Z () Real )
(declare-fun k () Real )
(assert (let
(( $goal (>= Z k) ))
(let
((
$phi ( and 
( or ( <= ( + X0 41 ) X1 )  ( <= ( + X1 92 ) X0 )  ( <= ( + Y0 69 ) Y1 )  ( <= ( + Y1 74 ) Y0 )  )
( or ( <= ( + X0 41 ) X2 )  ( <= ( + X2 13 ) X0 )  ( <= ( + Y0 69 ) Y2 )  ( <= ( + Y2 27 ) Y0 )  )
( or ( <= ( + X0 41 ) X3 )  ( <= ( + X3 76 ) X0 )  ( <= ( + Y0 69 ) Y3 )  ( <= ( + Y3 1 ) Y0 )  )
( or ( <= ( + X0 41 ) X4 )  ( <= ( + X4 95 ) X0 )  ( <= ( + Y0 69 ) Y4 )  ( <= ( + Y4 90 ) Y0 )  )
( or ( <= ( + X0 41 ) X5 )  ( <= ( + X5 90 ) X0 )  ( <= ( + Y0 69 ) Y5 )  ( <= ( + Y5 81 ) Y0 )  )
( or ( <= ( + X0 41 ) X6 )  ( <= ( + X6 13 ) X0 )  ( <= ( + Y0 69 ) Y6 )  ( <= ( + Y6 41 ) Y0 )  )
( or ( <= ( + X0 41 ) X7 )  ( <= ( + X7 99 ) X0 )  ( <= ( + Y0 69 ) Y7 )  ( <= ( + Y7 98 ) Y0 )  )
( or ( <= ( + X0 41 ) X8 )  ( <= ( + X8 49 ) X0 )  ( <= ( + Y0 69 ) Y8 )  ( <= ( + Y8 36 ) Y0 )  )
( or ( <= ( + X1 92 ) X2 )  ( <= ( + X2 13 ) X1 )  ( <= ( + Y1 74 ) Y2 )  ( <= ( + Y2 27 ) Y1 )  )
( or ( <= ( + X1 92 ) X3 )  ( <= ( + X3 76 ) X1 )  ( <= ( + Y1 74 ) Y3 )  ( <= ( + Y3 1 ) Y1 )  )
( or ( <= ( + X1 92 ) X4 )  ( <= ( + X4 95 ) X1 )  ( <= ( + Y1 74 ) Y4 )  ( <= ( + Y4 90 ) Y1 )  )
( or ( <= ( + X1 92 ) X5 )  ( <= ( + X5 90 ) X1 )  ( <= ( + Y1 74 ) Y5 )  ( <= ( + Y5 81 ) Y1 )  )
( or ( <= ( + X1 92 ) X6 )  ( <= ( + X6 13 ) X1 )  ( <= ( + Y1 74 ) Y6 )  ( <= ( + Y6 41 ) Y1 )  )
( or ( <= ( + X1 92 ) X7 )  ( <= ( + X7 99 ) X1 )  ( <= ( + Y1 74 ) Y7 )  ( <= ( + Y7 98 ) Y1 )  )
( or ( <= ( + X1 92 ) X8 )  ( <= ( + X8 49 ) X1 )  ( <= ( + Y1 74 ) Y8 )  ( <= ( + Y8 36 ) Y1 )  )
( or ( <= ( + X2 13 ) X3 )  ( <= ( + X3 76 ) X2 )  ( <= ( + Y2 27 ) Y3 )  ( <= ( + Y3 1 ) Y2 )  )
( or ( <= ( + X2 13 ) X4 )  ( <= ( + X4 95 ) X2 )  ( <= ( + Y2 27 ) Y4 )  ( <= ( + Y4 90 ) Y2 )  )
( or ( <= ( + X2 13 ) X5 )  ( <= ( + X5 90 ) X2 )  ( <= ( + Y2 27 ) Y5 )  ( <= ( + Y5 81 ) Y2 )  )
( or ( <= ( + X2 13 ) X6 )  ( <= ( + X6 13 ) X2 )  ( <= ( + Y2 27 ) Y6 )  ( <= ( + Y6 41 ) Y2 )  )
( or ( <= ( + X2 13 ) X7 )  ( <= ( + X7 99 ) X2 )  ( <= ( + Y2 27 ) Y7 )  ( <= ( + Y7 98 ) Y2 )  )
( or ( <= ( + X2 13 ) X8 )  ( <= ( + X8 49 ) X2 )  ( <= ( + Y2 27 ) Y8 )  ( <= ( + Y8 36 ) Y2 )  )
( or ( <= ( + X3 76 ) X4 )  ( <= ( + X4 95 ) X3 )  ( <= ( + Y3 1 ) Y4 )  ( <= ( + Y4 90 ) Y3 )  )
( or ( <= ( + X3 76 ) X5 )  ( <= ( + X5 90 ) X3 )  ( <= ( + Y3 1 ) Y5 )  ( <= ( + Y5 81 ) Y3 )  )
( or ( <= ( + X3 76 ) X6 )  ( <= ( + X6 13 ) X3 )  ( <= ( + Y3 1 ) Y6 )  ( <= ( + Y6 41 ) Y3 )  )
( or ( <= ( + X3 76 ) X7 )  ( <= ( + X7 99 ) X3 )  ( <= ( + Y3 1 ) Y7 )  ( <= ( + Y7 98 ) Y3 )  )
( or ( <= ( + X3 76 ) X8 )  ( <= ( + X8 49 ) X3 )  ( <= ( + Y3 1 ) Y8 )  ( <= ( + Y8 36 ) Y3 )  )
( or ( <= ( + X4 95 ) X5 )  ( <= ( + X5 90 ) X4 )  ( <= ( + Y4 90 ) Y5 )  ( <= ( + Y5 81 ) Y4 )  )
( or ( <= ( + X4 95 ) X6 )  ( <= ( + X6 13 ) X4 )  ( <= ( + Y4 90 ) Y6 )  ( <= ( + Y6 41 ) Y4 )  )
( or ( <= ( + X4 95 ) X7 )  ( <= ( + X7 99 ) X4 )  ( <= ( + Y4 90 ) Y7 )  ( <= ( + Y7 98 ) Y4 )  )
( or ( <= ( + X4 95 ) X8 )  ( <= ( + X8 49 ) X4 )  ( <= ( + Y4 90 ) Y8 )  ( <= ( + Y8 36 ) Y4 )  )
( or ( <= ( + X5 90 ) X6 )  ( <= ( + X6 13 ) X5 )  ( <= ( + Y5 81 ) Y6 )  ( <= ( + Y6 41 ) Y5 )  )
( or ( <= ( + X5 90 ) X7 )  ( <= ( + X7 99 ) X5 )  ( <= ( + Y5 81 ) Y7 )  ( <= ( + Y7 98 ) Y5 )  )
( or ( <= ( + X5 90 ) X8 )  ( <= ( + X8 49 ) X5 )  ( <= ( + Y5 81 ) Y8 )  ( <= ( + Y8 36 ) Y5 )  )
( or ( <= ( + X6 13 ) X7 )  ( <= ( + X7 99 ) X6 )  ( <= ( + Y6 41 ) Y7 )  ( <= ( + Y7 98 ) Y6 )  )
( or ( <= ( + X6 13 ) X8 )  ( <= ( + X8 49 ) X6 )  ( <= ( + Y6 41 ) Y8 )  ( <= ( + Y8 36 ) Y6 )  )
( or ( <= ( + X7 99 ) X8 )  ( <= ( + X8 49 ) X7 )  ( <= ( + Y7 98 ) Y8 )  ( <= ( + Y8 36 ) Y7 )  )
( >= X0 0)
( <= ( + X0 41) Z)
( >= Y0 0)
( <= ( + Y0 69 ) 100)
( >= X1 0)
( <= ( + X1 92) Z)
( >= Y1 0)
( <= ( + Y1 74 ) 100)
( >= X2 0)
( <= ( + X2 13) Z)
( >= Y2 0)
( <= ( + Y2 27 ) 100)
( >= X3 0)
( <= ( + X3 76) Z)
( >= Y3 0)
( <= ( + Y3 1 ) 100)
( >= X4 0)
( <= ( + X4 95) Z)
( >= Y4 0)
( <= ( + Y4 90 ) 100)
( >= X5 0)
( <= ( + X5 90) Z)
( >= Y5 0)
( <= ( + Y5 81 ) 100)
( >= X6 0)
( <= ( + X6 13) Z)
( >= Y6 0)
( <= ( + Y6 41 ) 100)
( >= X7 0)
( <= ( + X7 99) Z)
( >= Y7 0)
( <= ( + Y7 98 ) 100)
( >= X8 0)
( <= ( + X8 49) Z)
( >= Y8 0)
( <= ( + Y8 36 ) 100)
) )
)(=> $phi $goal))))